NAME : random165.954.tour
COMMENT : Length = 954
COMMENT : Found by LKH [Keld Helsgaun] Sat Nov 23 16:13:48 2024
TYPE : TOUR
DIMENSION : 165
TOUR_SECTION
1
60
8
111
132
113
65
96
75
12
106
91
53
78
90
54
36
156
154
115
163
144
13
11
150
31
16
66
120
110
55
14
49
44
124
85
89
123
43
104
4
59
98
39
48
105
35
97
83
20
146
64
80
81
157
95
87
23
37
137
72
133
58
121
30
69
158
99
164
100
51
108
7
47
114
165
160
74
131
29
40
139
107
79
61
143
34
17
26
15
73
129
70
21
57
88
148
128
32
130
93
94
41
142
18
77
33
126
92
149
67
141
138
122
116
155
27
153
135
102
101
151
145
161
71
24
9
25
119
2
125
3
50
112
127
162
56
134
140
42
62
5
118
152
19
117
103
22
28
68
63
46
147
10
6
109
84
52
136
159
38
76
45
82
86
-1
EOF
